benchmarks/Factorization/qdimacs/factorization16.qdimacs
c Qdimacs file from skolem function generator
p cnf 390 1295
a 374 375 376 377 378 379 380 381 382 383 384 385 386 387 388 389 0
e 358 359 360 361 362 363 364 365 366 367 368 369 370 371 372 373 1 2 3 4 5 6 7 8 9 10 11 12 13 14 15 16 17 18 19 20 21 22 23 24 25 26 27 28 29 30 31 32 33 34 35 36 37 38 39 40 41 42 43 44 45 46 47 48 49 50 51 52 53 54 55 56 57 58 59 60 61 62 63 64 65 66 67 68 69 70 71 72 73 74 75 76 77 78 79 80 81 82 83 84 85 86 87 88 89 90 91 92 93 94 95 96 97 98 99 100 101 102 103 104 105 106 107 108 109 110 111 112 113 114 115 116 117 118 119 120 121 122 123 124 125 126 127 128 129 130 131 132 133 134 135 136 137 138 139 140 141 142 143 144 145 146 147 148 149 150 151 152 153 154 155 156 157 158 159 160 161 162 163 164 165 166 167 168 169 170 171 172 173 174 175 176 177 178 179 180 181 182 183 184 185 186 187 188 189 190 191 192 193 194 195 196 197 198 199 200 201 202 203 204 205 206 207 208 209 210 211 212 213 214 215 216 217 218 219 220 221 222 223 224 225 226 227 228 229 230 231 232 233 234 235 236 237 238 239 240 241 242 243 244 245 246 247 248 249 250 251 252 253 254 255 256 257 258 259 260 261 262 263 264 265 266 267 268 269 270 271 272 273 274 275 276 277 278 279 280 281 282 283 284 285 286 287 288 289 290 291 292 293 294 295 296 297 298 299 300 301 302 303 304 305 306 307 308 309 310 311 312 313 314 315 316 317 318 319 320 321 322 323 324 325 326 327 328 329 330 331 332 333 334 335 336 337 338 339 340 341 342 343 344 345 346 347 348 349 350 351 352 353 354 355 356 357 390 0
4 5 296 -300 0
-4 300 0
-4 -296 0
-4 -5 0
5 375 -6 0
5 -375 6 0
-5 -375 -6 0
-5 375 6 0
6 -7 -291 0
6 7 291 0
-6 7 -291 0
-6 -7 291 0
7 8 256 0
-7 -8 0
-7 -256 0
8 -364 -373 -9 0
-8 364 0
-8 373 0
-8 9 0
9 -10 -251 0
9 10 251 0
-9 10 -251 0
-9 -10 251 0
10 11 216 0
-10 -11 0
-10 -216 0
11 -364 -372 -12 0
-11 364 0
-11 372 0
-11 12 0
12 -13 -211 0
12 13 211 0
-12 13 -211 0
-12 -13 211 0
13 14 176 0
-13 -14 0
-13 -176 0
14 -364 -371 -15 0
-14 364 0
-14 371 0
-14 15 0
15 -16 -171 0
15 16 171 0
-15 16 -171 0
-15 -16 171 0
16 17 136 0
-16 -17 0
-16 -136 0
17 -364 -370 -18 0
-17 364 0
-17 370 0
-17 18 0
18 -19 -131 0
18 19 131 0
-18 19 -131 0
-18 -19 131 0
19 20 96 0
-19 -20 0
-19 -96 0
20 -364 -369 -21 0
-20 364 0
-20 369 0
-20 21 0
21 -22 -94 0
21 22 94 0
-21 22 -94 0
-21 -22 94 0
22 23 57 0
-22 -23 0
-22 -57 0
23 -364 -368 -24 0
-23 364 0
-23 368 0
-23 24 0
24 25 -26 0
24 366 -25 26 0
24 364 -25 26 0
-24 25 26 0
-24 -25 -26 0
-24 -364 -366 26 0
25 -365 -367 0
-25 365 0
-25 367 0
26 27 54 0
-26 -27 0
-26 -54 0
27 28 29 0
-27 -28 0
-27 -29 0
28 -363 -364 -366 -367 0
-28 367 0
-28 363 0
-28 366 0
-28 364 0
29 30 -51 0
-29 -30 0
-29 51 0
30 31 32 0
-30 -31 0
-30 -32 0
31 -362 -363 -366 -367 0
-31 367 0
-31 362 0
-31 366 0
-31 363 0
32 33 -48 0
-32 -33 0
-32 48 0
33 34 35 0
-33 -34 0
-33 -35 0
34 -361 -362 -366 -367 0
-34 367 0
-34 361 0
-34 366 0
-34 362 0
35 36 -45 0
-35 -36 0
-35 45 0
36 37 38 0
-36 -37 0
-36 -38 0
37 -360 -361 -366 -367 0
-37 367 0
-37 360 0
-37 366 0
-37 361 0
38 39 -42 0
-38 -39 0
-38 42 0
39 40 41 0
-39 -40 0
-39 -41 0
40 -358 -359 -366 -367 0
-40 367 0
-40 358 0
-40 366 0
-40 359 0
41 -359 -360 -366 -367 0
-41 367 0
-41 359 0
-41 366 0
-41 360 0
42 43 -44 0
42 -43 44 0
-42 -43 -44 0
-42 43 44 0
43 -361 -366 0
-43 361 0
-43 366 0
44 -360 -367 0
-44 360 0
-44 367 0
45 46 -47 0
45 -46 47 0
-45 -46 -47 0
-45 46 47 0
46 -362 -366 0
-46 362 0
-46 366 0
47 -361 -367 0
-47 361 0
-47 367 0
48 49 -50 0
48 -49 50 0
-48 -49 -50 0
-48 49 50 0
49 -363 -366 0
-49 363 0
-49 366 0
50 -362 -367 0
-50 362 0
-50 367 0
51 52 -53 0
51 -52 53 0
-51 -52 -53 0
-51 52 53 0
52 -364 -366 0
-52 364 0
-52 366 0
53 -363 -367 0
-53 363 0
-53 367 0
54 -55 -56 0
54 55 56 0
-54 55 -56 0
-54 -55 56 0
55 -364 -367 0
-55 364 0
-55 367 0
56 -365 -366 0
-56 365 0
-56 366 0
57 58 -92 0
-57 -58 0
-57 92 0
58 59 61 0
-58 -59 0
-58 -61 0
59 -363 -368 -60 0
-59 363 0
-59 368 0
-59 60 0
60 27 -54 0
60 -27 54 0
-60 -27 -54 0
-60 27 54 0
61 62 -90 0
-61 -62 0
-61 90 0
62 63 65 0
-62 -63 0
-62 -65 0
63 -362 -368 -64 0
-63 362 0
-63 368 0
-63 64 0
64 -30 -51 0
64 30 51 0
-64 30 -51 0
-64 -30 51 0
65 66 -88 0
-65 -66 0
-65 88 0
66 67 69 0
-66 -67 0
-66 -69 0
67 -361 -368 -68 0
-67 361 0
-67 368 0
-67 68 0
68 -33 -48 0
68 33 48 0
-68 33 -48 0
-68 -33 48 0
69 70 -86 0
-69 -70 0
-69 86 0
70 71 73 0
-70 -71 0
-70 -73 0
71 -360 -368 -72 0
-71 360 0
-71 368 0
-71 72 0
72 -36 -45 0
72 36 45 0
-72 36 -45 0
-72 -36 45 0
73 74 -84 0
-73 -74 0
-73 84 0
74 75 77 0
-74 -75 0
-74 -77 0
75 -359 -368 -76 0
-75 359 0
-75 368 0
-75 76 0
76 -39 -42 0
76 39 42 0
-76 39 -42 0
-76 -39 42 0
77 -78 -82 0
-77 78 0
-77 82 0
78 -358 -368 -79 0
-78 358 0
-78 368 0
-78 79 0
79 40 -80 81 0
79 -40 -80 -81 0
79 40 80 -81 0
-79 -40 81 0
-79 -40 80 0
-79 80 81 0
-79 40 -80 -81 0
80 -360 -366 0
-80 360 0
-80 366 0
81 -359 -367 0
-81 359 0
-81 367 0
82 76 -83 0
82 -76 83 0
-82 -76 -83 0
-82 76 83 0
83 -359 -368 0
-83 359 0
-83 368 0
84 72 -85 0
84 -72 85 0
-84 -72 -85 0
-84 72 85 0
85 -360 -368 0
-85 360 0
-85 368 0
86 68 -87 0
86 -68 87 0
-86 -68 -87 0
-86 68 87 0
87 -361 -368 0
-87 361 0
-87 368 0
88 64 -89 0
88 -64 89 0
-88 -64 -89 0
-88 64 89 0
89 -362 -368 0
-89 362 0
-89 368 0
90 60 -91 0
90 -60 91 0
-90 -60 -91 0
-90 60 91 0
91 -363 -368 0
-91 363 0
-91 368 0
92 93 -24 0
92 -93 24 0
-92 -93 -24 0
-92 93 24 0
93 -364 -368 0
-93 364 0
-93 368 0
94 368 -95 0
94 -365 -368 95 0
-94 365 -368 0
-94 368 95 0
-94 -368 -95 0
95 -365 -367 -26 0
95 -365 -367 -52 0
-95 365 0
-95 367 0
-95 52 26 0
96 97 -129 0
-96 -97 0
-96 129 0
97 98 100 0
-97 -98 0
-97 -100 0
98 -363 -369 -99 0
-98 363 0
-98 369 0
-98 99 0
99 -58 -92 0
99 58 92 0
-99 58 -92 0
-99 -58 92 0
100 101 -127 0
-100 -101 0
-100 127 0
101 102 104 0
-101 -102 0
-101 -104 0
102 -362 -369 -103 0
-102 362 0
-102 369 0
-102 103 0
103 -62 -90 0
103 62 90 0
-103 62 -90 0
-103 -62 90 0
104 105 -125 0
-104 -105 0
-104 125 0
105 106 108 0
-105 -106 0
-105 -108 0
106 -361 -369 -107 0
-106 361 0
-106 369 0
-106 107 0
107 -66 -88 0
107 66 88 0
-107 66 -88 0
-107 -66 88 0
108 109 -123 0
-108 -109 0
-108 123 0
109 110 112 0
-109 -110 0
-109 -112 0
110 -360 -369 -111 0
-110 360 0
-110 369 0
-110 111 0
111 -70 -86 0
111 70 86 0
-111 70 -86 0
-111 -70 86 0
112 113 -121 0
-112 -113 0
-112 121 0
113 114 116 0
-113 -114 0
-113 -116 0
114 -359 -369 -115 0
-114 359 0
-114 369 0
-114 115 0
115 -74 -84 0
115 74 84 0
-115 74 -84 0
-115 -74 84 0
116 -117 -119 0
-116 117 0
-116 119 0
117 -358 -369 -118 0
-117 358 0
-117 369 0
-117 118 0
118 78 -82 0
118 -78 82 0
-118 -78 -82 0
-118 78 82 0
119 115 -120 0
119 -115 120 0
-119 -115 -120 0
-119 115 120 0
120 -359 -369 0
-120 359 0
-120 369 0
121 111 -122 0
121 -111 122 0
-121 -111 -122 0
-121 111 122 0
122 -360 -369 0
-122 360 0
-122 369 0
123 107 -124 0
123 -107 124 0
-123 -107 -124 0
-123 107 124 0
124 -361 -369 0
-124 361 0
-124 369 0
125 103 -126 0
125 -103 126 0
-125 -103 -126 0
-125 103 126 0
126 -362 -369 0
-126 362 0
-126 369 0
127 128 -99 0
127 -128 99 0
-127 -128 -99 0
-127 128 99 0
128 -363 -369 0
-128 363 0
-128 369 0
129 130 -21 0
129 -130 21 0
-129 -130 -21 0
-129 130 21 0
130 -364 -369 0
-130 364 0
-130 369 0
131 -132 -133 0
131 132 133 0
-131 132 -133 0
-131 -132 133 0
132 -365 -369 0
-132 365 0
-132 369 0
133 134 135 0
-133 -134 0
-133 -135 0
134 -368 -95 0
-134 368 0
-134 95 0
135 22 -94 0
-135 -22 0
-135 94 0
136 137 -169 0
-136 -137 0
-136 169 0
137 138 140 0
-137 -138 0
-137 -140 0
138 -363 -370 -139 0
-138 363 0
-138 370 0
-138 139 0
139 -97 -129 0
139 97 129 0
-139 97 -129 0
-139 -97 129 0
140 141 -167 0
-140 -141 0
-140 167 0
141 142 144 0
-141 -142 0
-141 -144 0
142 -362 -370 -143 0
-142 362 0
-142 370 0
-142 143 0
143 -101 -127 0
143 101 127 0
-143 101 -127 0
-143 -101 127 0
144 145 -165 0
-144 -145 0
-144 165 0
145 146 148 0
-145 -146 0
-145 -148 0
146 -361 -370 -147 0
-146 361 0
-146 370 0
-146 147 0
147 -105 -125 0
147 105 125 0
-147 105 -125 0
-147 -105 125 0
148 149 -163 0
-148 -149 0
-148 163 0
149 150 152 0
-149 -150 0
-149 -152 0
150 -360 -370 -151 0
-150 360 0
-150 370 0
-150 151 0
151 -109 -123 0
151 109 123 0
-151 109 -123 0
-151 -109 123 0
152 153 -161 0
-152 -153 0
-152 161 0
153 154 156 0
-153 -154 0
-153 -156 0
154 -359 -370 -155 0
-154 359 0
-154 370 0
-154 155 0
155 -113 -121 0
155 113 121 0
-155 113 -121 0
-155 -113 121 0
156 -157 -159 0
-156 157 0
-156 159 0
157 -358 -370 -158 0
-157 358 0
-157 370 0
-157 158 0
158 117 -119 0
158 -117 119 0
-158 -117 -119 0
-158 117 119 0
159 155 -160 0
159 -155 160 0
-159 -155 -160 0
-159 155 160 0
160 -359 -370 0
-160 359 0
-160 370 0
161 151 -162 0
161 -151 162 0
-161 -151 -162 0
-161 151 162 0
162 -360 -370 0
-162 360 0
-162 370 0
163 147 -164 0
163 -147 164 0
-163 -147 -164 0
-163 147 164 0
164 -361 -370 0
-164 361 0
-164 370 0
165 166 -143 0
165 -166 143 0
-165 -166 -143 0
-165 166 143 0
166 -362 -370 0
-166 362 0
-166 370 0
167 168 -139 0
167 -168 139 0
-167 -168 -139 0
-167 168 139 0
168 -363 -370 0
-168 363 0
-168 370 0
169 170 -18 0
169 -170 18 0
-169 -170 -18 0
-169 170 18 0
170 -364 -370 0
-170 364 0
-170 370 0
171 -172 -173 0
171 172 173 0
-171 172 -173 0
-171 -172 173 0
172 -365 -370 0
-172 365 0
-172 370 0
173 174 175 0
-173 -174 0
-173 -175 0
174 -365 -369 133 0
-174 365 0
-174 369 0
-174 -133 0
175 19 -131 0
-175 -19 0
-175 131 0
176 177 -209 0
-176 -177 0
-176 209 0
177 178 180 0
-177 -178 0
-177 -180 0
178 -363 -371 -179 0
-178 363 0
-178 371 0
-178 179 0
179 -137 -169 0
179 137 169 0
-179 137 -169 0
-179 -137 169 0
180 181 -207 0
-180 -181 0
-180 207 0
181 182 184 0
-181 -182 0
-181 -184 0
182 -362 -371 -183 0
-182 362 0
-182 371 0
-182 183 0
183 -141 -167 0
183 141 167 0
-183 141 -167 0
-183 -141 167 0
184 185 -205 0
-184 -185 0
-184 205 0
185 186 188 0
-185 -186 0
-185 -188 0
186 -361 -371 -187 0
-186 361 0
-186 371 0
-186 187 0
187 -145 -165 0
187 145 165 0
-187 145 -165 0
-187 -145 165 0
188 189 -203 0
-188 -189 0
-188 203 0
189 190 192 0
-189 -190 0
-189 -192 0
190 -360 -371 -191 0
-190 360 0
-190 371 0
-190 191 0
191 -149 -163 0
191 149 163 0
-191 149 -163 0
-191 -149 163 0
192 193 -201 0
-192 -193 0
-192 201 0
193 194 196 0
-193 -194 0
-193 -196 0
194 -359 -371 -195 0
-194 359 0
-194 371 0
-194 195 0
195 -153 -161 0
195 153 161 0
-195 153 -161 0
-195 -153 161 0
196 -197 -199 0
-196 197 0
-196 199 0
197 -358 -371 -198 0
-197 358 0
-197 371 0
-197 198 0
198 157 -159 0
198 -157 159 0
-198 -157 -159 0
-198 157 159 0
199 195 -200 0
199 -195 200 0
-199 -195 -200 0
-199 195 200 0
200 -359 -371 0
-200 359 0
-200 371 0
201 191 -202 0
201 -191 202 0
-201 -191 -202 0
-201 191 202 0
202 -360 -371 0
-202 360 0
-202 371 0
203 204 -187 0
203 -204 187 0
-203 -204 -187 0
-203 204 187 0
204 -361 -371 0
-204 361 0
-204 371 0
205 206 -183 0
205 -206 183 0
-205 -206 -183 0
-205 206 183 0
206 -362 -371 0
-206 362 0
-206 371 0
207 208 -179 0
207 -208 179 0
-207 -208 -179 0
-207 208 179 0
208 -363 -371 0
-208 363 0
-208 371 0
209 210 -15 0
209 -210 15 0
-209 -210 -15 0
-209 210 15 0
210 -364 -371 0
-210 364 0
-210 371 0
211 -212 -213 0
211 212 213 0
-211 212 -213 0
-211 -212 213 0
212 -365 -371 0
-212 365 0
-212 371 0
213 214 215 0
-213 -214 0
-213 -215 0
214 -365 -370 173 0
-214 365 0
-214 370 0
-214 -173 0
215 16 -171 0
-215 -16 0
-215 171 0
216 217 -249 0
-216 -217 0
-216 249 0
217 218 220 0
-217 -218 0
-217 -220 0
218 -363 -372 -219 0
-218 363 0
-218 372 0
-218 219 0
219 -177 -209 0
219 177 209 0
-219 177 -209 0
-219 -177 209 0
220 221 -247 0
-220 -221 0
-220 247 0
221 222 224 0
-221 -222 0
-221 -224 0
222 -362 -372 -223 0
-222 362 0
-222 372 0
-222 223 0
223 -181 -207 0
223 181 207 0
-223 181 -207 0
-223 -181 207 0
224 225 -245 0
-224 -225 0
-224 245 0
225 226 228 0
-225 -226 0
-225 -228 0
226 -361 -372 -227 0
-226 361 0
-226 372 0
-226 227 0
227 -185 -205 0
227 185 205 0
-227 185 -205 0
-227 -185 205 0
228 229 -243 0
-228 -229 0
-228 243 0
229 230 232 0
-229 -230 0
-229 -232 0
230 -360 -372 -231 0
-230 360 0
-230 372 0
-230 231 0
231 -189 -203 0
231 189 203 0
-231 189 -203 0
-231 -189 203 0
232 233 -241 0
-232 -233 0
-232 241 0
233 234 236 0
-233 -234 0
-233 -236 0
234 -359 -372 -235 0
-234 359 0
-234 372 0
-234 235 0
235 -193 -201 0
235 193 201 0
-235 193 -201 0
-235 -193 201 0
236 -237 -239 0
-236 237 0
-236 239 0
237 -358 -372 -238 0
-237 358 0
-237 372 0
-237 238 0
238 197 -199 0
238 -197 199 0
-238 -197 -199 0
-238 197 199 0
239 235 -240 0
239 -235 240 0
-239 -235 -240 0
-239 235 240 0
240 -359 -372 0
-240 359 0
-240 372 0
241 242 -231 0
241 -242 231 0
-241 -242 -231 0
-241 242 231 0
242 -360 -372 0
-242 360 0
-242 372 0
243 244 -227 0
243 -244 227 0
-243 -244 -227 0
-243 244 227 0
244 -361 -372 0
-244 361 0
-244 372 0
245 246 -223 0
245 -246 223 0
-245 -246 -223 0
-245 246 223 0
246 -362 -372 0
-246 362 0
-246 372 0
247 248 -219 0
247 -248 219 0
-247 -248 -219 0
-247 248 219 0
248 -363 -372 0
-248 363 0
-248 372 0
249 250 -12 0
249 -250 12 0
-249 -250 -12 0
-249 250 12 0
250 -364 -372 0
-250 364 0
-250 372 0
251 -252 -253 0
251 252 253 0
-251 252 -253 0
-251 -252 253 0
252 -365 -372 0
-252 365 0
-252 372 0
253 254 255 0
-253 -254 0
-253 -255 0
254 -365 -371 213 0
-254 365 0
-254 371 0
-254 -213 0
255 13 -211 0
-255 -13 0
-255 211 0
256 257 -289 0
-256 -257 0
-256 289 0
257 258 260 0
-257 -258 0
-257 -260 0
258 -363 -373 -259 0
-258 363 0
-258 373 0
-258 259 0
259 -217 -249 0
259 217 249 0
-259 217 -249 0
-259 -217 249 0
260 261 -287 0
-260 -261 0
-260 287 0
261 262 264 0
-261 -262 0
-261 -264 0
262 -362 -373 -263 0
-262 362 0
-262 373 0
-262 263 0
263 -221 -247 0
263 221 247 0
-263 221 -247 0
-263 -221 247 0
264 265 -285 0
-264 -265 0
-264 285 0
265 266 268 0
-265 -266 0
-265 -268 0
266 -361 -373 -267 0
-266 361 0
-266 373 0
-266 267 0
267 -225 -245 0
267 225 245 0
-267 225 -245 0
-267 -225 245 0
268 269 -283 0
-268 -269 0
-268 283 0
269 270 272 0
-269 -270 0
-269 -272 0
270 -360 -373 -271 0
-270 360 0
-270 373 0
-270 271 0
271 -229 -243 0
271 229 243 0
-271 229 -243 0
-271 -229 243 0
272 273 -281 0
-272 -273 0
-272 281 0
273 274 276 0
-273 -274 0
-273 -276 0
274 -359 -373 -275 0
-274 359 0
-274 373 0
-274 275 0
275 -233 -241 0
275 233 241 0
-275 233 -241 0
-275 -233 241 0
276 -277 -279 0
-276 277 0
-276 279 0
277 -358 -373 -278 0
-277 358 0
-277 373 0
-277 278 0
278 237 -239 0
278 -237 239 0
-278 -237 -239 0
-278 237 239 0
279 280 -275 0
279 -280 275 0
-279 -280 -275 0
-279 280 275 0
280 -359 -373 0
-280 359 0
-280 373 0
281 282 -271 0
281 -282 271 0
-281 -282 -271 0
-281 282 271 0
282 -360 -373 0
-282 360 0
-282 373 0
283 284 -267 0
283 -284 267 0
-283 -284 -267 0
-283 284 267 0
284 -361 -373 0
-284 361 0
-284 373 0
285 286 -263 0
285 -286 263 0
-285 -286 -263 0
-285 286 263 0
286 -362 -373 0
-286 362 0
-286 373 0
287 288 -259 0
287 -288 259 0
-287 -288 -259 0
-287 288 259 0
288 -363 -373 0
-288 363 0
-288 373 0
289 290 -9 0
289 -290 9 0
-289 -290 -9 0
-289 290 9 0
290 -364 -373 0
-290 364 0
-290 373 0
291 -292 -293 0
291 292 293 0
-291 292 -293 0
-291 -292 293 0
292 -365 -373 0
-292 365 0
-292 373 0
293 294 295 0
-293 -294 0
-293 -295 0
294 -365 -372 253 0
-294 365 0
-294 372 0
-294 -253 0
295 10 -251 0
-295 -10 0
-295 251 0
296 -374 -297 0
296 374 297 0
-296 374 -297 0
-296 -374 297 0
297 298 299 0
-297 -298 0
-297 -299 0
298 -365 -373 293 0
-298 365 0
-298 373 0
-298 -293 0
299 7 -291 0
-299 -7 0
-299 291 0
300 301 303 -305 0
-300 305 0
-300 -303 0
-300 -301 0
301 376 -302 0
301 -376 302 0
-301 -376 -302 0
-301 376 302 0
302 -257 -289 0
302 257 289 0
-302 257 -289 0
-302 -257 289 0
303 377 -304 0
303 -377 304 0
-303 -377 -304 0
-303 377 304 0
304 -261 -287 0
304 261 287 0
-304 261 -287 0
-304 -261 287 0
305 306 308 -310 0
-305 310 0
-305 -308 0
-305 -306 0
306 378 -307 0
306 -378 307 0
-306 -378 -307 0
-306 378 307 0
307 -265 -285 0
307 265 285 0
-307 265 -285 0
-307 -265 285 0
308 379 -309 0
308 -379 309 0
-308 -379 -309 0
-308 379 309 0
309 -269 -283 0
309 269 283 0
-309 269 -283 0
-309 -269 283 0
310 311 313 -315 0
-310 315 0
-310 -313 0
-310 -311 0
311 380 -312 0
311 -380 312 0
-311 -380 -312 0
-311 380 312 0
312 -273 -281 0
312 273 281 0
-312 273 -281 0
-312 -273 281 0
313 381 -314 0
313 -381 314 0
-313 -381 -314 0
-313 381 314 0
314 277 -279 0
314 -277 279 0
-314 -277 -279 0
-314 277 279 0
315 -382 -316 -318 0
315 382 316 -318 0
-315 318 0
-315 -382 316 0
-315 382 -316 0
316 278 -317 0
316 -278 317 0
-316 -278 -317 0
-316 278 317 0
317 -358 -373 0
-317 358 0
-317 373 0
318 383 319 321 -324 0
318 -383 -319 321 -324 0
-318 -321 0
-318 383 -319 0
-318 324 0
-318 -383 319 0
319 238 -320 0
319 -238 320 0
-319 -238 -320 0
-319 238 320 0
320 -358 -372 0
-320 358 0
-320 372 0
321 -384 322 0
-321 384 0
-321 -322 0
322 198 -323 0
322 -198 323 0
-322 -198 -323 0
-322 198 323 0
323 -358 -371 0
-323 358 0
-323 371 0
324 385 325 326 -328 0
324 -385 325 -326 -328 0
-324 328 0
-324 385 -326 0
-324 -325 0
-324 -385 326 0
325 384 -322 0
-325 -384 0
-325 322 0
326 158 -327 0
326 -158 327 0
-326 -158 -327 0
-326 158 327 0
327 -358 -370 0
-327 358 0
-327 370 0
328 -386 -329 -331 0
328 386 329 -331 0
-328 331 0
-328 -386 329 0
-328 386 -329 0
329 118 -330 0
329 -118 330 0
-329 -118 -330 0
-329 118 330 0
330 -358 -369 0
-330 358 0
-330 369 0
331 387 332 334 -338 0
331 -387 -332 334 -338 0
-331 -334 0
-331 387 -332 0
-331 338 0
-331 -387 332 0
332 333 -79 0
332 -333 79 0
-332 -333 -79 0
-332 333 79 0
333 -358 -368 0
-333 358 0
-333 368 0
334 388 -335 0
334 -388 335 0
-334 -388 -335 0
-334 388 335 0
335 336 -337 0
335 -336 337 0
-335 -336 -337 0
-335 336 337 0
336 -359 -366 0
-336 359 0
-336 366 0
337 -358 -367 0
-337 358 0
-337 367 0
338 339 342 343 0
-338 -339 0
-338 -343 0
-338 -342 0
339 -358 -340 0
339 -358 -366 389 0
-339 358 0
-339 366 340 0
-339 -389 340 0
340 363 364 365 -341 0
-340 341 0
-340 -365 0
-340 -363 0
-340 -364 0
341 359 360 361 362 0
-341 -362 0
-341 -361 0
-341 -359 0
-341 -360 0
342 366 -389 0
342 358 -389 0
-342 389 0
-342 -358 -366 0
343 368 369 -344 -345 0
-343 -368 0
-343 345 0
-343 344 0
-343 -369 0
344 370 371 372 373 0
-344 -373 0
-344 -372 0
-344 -370 0
-344 -371 0
345 -366 367 0
-345 366 0
-345 -367 0
346 301 303 306 -347 0
-346 347 0
-346 -306 0
-346 -301 0
-346 -303 0
347 5 296 -348 0
-347 348 0
-347 -296 0
-347 -5 0
348 339 342 343 -349 0
-348 349 0
-348 -343 0
-348 -339 0
-348 -342 0
349 387 332 334 -350 0
349 -387 -332 334 -350 0
-349 -334 0
-349 387 -332 0
-349 350 0
-349 -387 332 0
350 386 351 329 -352 0
350 -386 351 -329 -352 0
-350 352 0
-350 386 -329 0
-350 -351 0
-350 -386 329 0
351 385 -326 0
-351 -385 0
-351 326 0
352 384 322 353 -354 0
352 -384 -322 353 -354 0
-352 -353 0
-352 384 -322 0
-352 354 0
-352 -384 322 0
353 -385 326 0
-353 385 0
-353 -326 0
354 383 355 319 -356 0
354 -383 355 -319 -356 0
-354 356 0
-354 383 -319 0
-354 -355 0
-354 -383 319 0
355 382 -316 0
-355 -382 0
-355 316 0
356 308 311 313 357 0
-356 -357 0
-356 -313 0
-356 -308 0
-356 -311 0
357 -382 316 0
-357 382 0
-357 -316 0
390 0
2 -4 0
-2 4 0
3 -346 0
-3 346 0
3 0

